outputs/case_251.model.txt
media_record_retention_years = 1
investment_analysis_report_retention_years = 5
contract_rights_obligations_retention_years = 5
business_executed_with_duty_of_care_and_loyalty = True
unauthorized_public_prediction = False
contract_includes_non_disclosure_clause = True
false_misleading_behavior = False
compensation_requested = True
contract_includes_service_scope = True
contract_includes_parties_info = True
media_record_retention = True
contract_includes_service_method = True
fraudulent_contract = False
contract_termination_compensation_ok = True
internal_management_rules_established_and_executed = True
proxy_securities_investment = False
unregistered_name_activity = False
conflict_of_interest_behavior = False
has_disqualifying_circumstances = False
internal_management_rules = True
buy_sell_same_security = False
investment_analysis_report_retention = True
contract_includes_termination_within_7_days = True
meets_qualification_requirements = True
unreasonable_commission = False
contract_written = True
non_employee_program_host = False
registration_eligibility = True
is_registered = True
contract_includes_rights_obligations = True
loan_or_intermediation = False
manager_executive_dedicated = True
contract_includes_confidentiality_obligation = True
contract_includes_refund_ratio_method = True
unregistered_business_location = False
investment_analysis_report_required = True
contract_includes_effective_duration = True
registration_revoked = False
contract_includes_fee_amount_method = True
is_dedicated = True
manager_executive_registered = True
incitement_to_breach_contract = False
other_illegal_acts = False
confidentiality_obligation = True
profit_loss_sharing_agreement = False
custody_or_misappropriation = False
investment_analysis_report_created = True
unauthorized_use_of_name = False
contract_exists = True
profit_and_expense_sharing_agreement = False
unauthorized_disclosure = False
unreasonable_advice = False
contract_includes_modification_termination = True
contract_includes_dispute_resolution = True
prohibited_behaviors = True
duty_of_care_and_loyalty = True
contract_includes_other_required_items = True
damages_or_penalty_requested = False
client_data_kept_confidential = True
superstition_based_advice = False
contract_rights_obligations_retention = True
penalty = False
gift_as_advisory_service = False